(set-logic QF_LRA)
(declare-fun X0 () Real )
(declare-fun Y0 () Real )
(declare-fun X1 () Real )
(declare-fun Y1 () Real )
(declare-fun X2 () Real )
(declare-fun Y2 () Real )
(declare-fun X3 () Real )
(declare-fun Y3 () Real )
(declare-fun X4 () Real )
(declare-fun Y4 () Real )
(declare-fun X5 () Real )
(declare-fun Y5 () Real )
(declare-fun X6 () Real )
(declare-fun Y6 () Real )
(declare-fun X7 () Real )
(declare-fun Y7 () Real )
(declare-fun X8 () Real )
(declare-fun Y8 () Real )
(declare-fun X9 () Real )
(declare-fun Y9 () Real )
(declare-fun X10 () Real )
(declare-fun Y10 () Real )
(declare-fun X11 () Real )
(declare-fun Y11 () Real )
(declare-fun Z () Real )
(declare-fun k () Real )
(assert (let
(( $goal (>= Z k) ))
(let
((
$phi ( and 
( or ( <= ( + X0 17 ) X1 )  ( <= ( + X1 24 ) X0 )  ( <= ( + Y0 4 ) Y1 )  ( <= ( + Y1 43 ) Y0 )  )
( or ( <= ( + X0 17 ) X2 )  ( <= ( + X2 40 ) X0 )  ( <= ( + Y0 4 ) Y2 )  ( <= ( + Y2 70 ) Y0 )  )
( or ( <= ( + X0 17 ) X3 )  ( <= ( + X3 48 ) X0 )  ( <= ( + Y0 4 ) Y3 )  ( <= ( + Y3 60 ) Y0 )  )
( or ( <= ( + X0 17 ) X4 )  ( <= ( + X4 7 ) X0 )  ( <= ( + Y0 4 ) Y4 )  ( <= ( + Y4 41 ) Y0 )  )
( or ( <= ( + X0 17 ) X5 )  ( <= ( + X5 86 ) X0 )  ( <= ( + Y0 4 ) Y5 )  ( <= ( + Y5 37 ) Y0 )  )
( or ( <= ( + X0 17 ) X6 )  ( <= ( + X6 94 ) X0 )  ( <= ( + Y0 4 ) Y6 )  ( <= ( + Y6 84 ) Y0 )  )
( or ( <= ( + X0 17 ) X7 )  ( <= ( + X7 1 ) X0 )  ( <= ( + Y0 4 ) Y7 )  ( <= ( + Y7 84 ) Y0 )  )
( or ( <= ( + X0 17 ) X8 )  ( <= ( + X8 62 ) X0 )  ( <= ( + Y0 4 ) Y8 )  ( <= ( + Y8 24 ) Y0 )  )
( or ( <= ( + X0 17 ) X9 )  ( <= ( + X9 63 ) X0 )  ( <= ( + Y0 4 ) Y9 )  ( <= ( + Y9 4 ) Y0 )  )
( or ( <= ( + X0 17 ) X10 )  ( <= ( + X10 69 ) X0 )  ( <= ( + Y0 4 ) Y10 )  ( <= ( + Y10 48 ) Y0 )  )
( or ( <= ( + X0 17 ) X11 )  ( <= ( + X11 84 ) X0 )  ( <= ( + Y0 4 ) Y11 )  ( <= ( + Y11 38 ) Y0 )  )
( or ( <= ( + X1 24 ) X2 )  ( <= ( + X2 40 ) X1 )  ( <= ( + Y1 43 ) Y2 )  ( <= ( + Y2 70 ) Y1 )  )
( or ( <= ( + X1 24 ) X3 )  ( <= ( + X3 48 ) X1 )  ( <= ( + Y1 43 ) Y3 )  ( <= ( + Y3 60 ) Y1 )  )
( or ( <= ( + X1 24 ) X4 )  ( <= ( + X4 7 ) X1 )  ( <= ( + Y1 43 ) Y4 )  ( <= ( + Y4 41 ) Y1 )  )
( or ( <= ( + X1 24 ) X5 )  ( <= ( + X5 86 ) X1 )  ( <= ( + Y1 43 ) Y5 )  ( <= ( + Y5 37 ) Y1 )  )
( or ( <= ( + X1 24 ) X6 )  ( <= ( + X6 94 ) X1 )  ( <= ( + Y1 43 ) Y6 )  ( <= ( + Y6 84 ) Y1 )  )
( or ( <= ( + X1 24 ) X7 )  ( <= ( + X7 1 ) X1 )  ( <= ( + Y1 43 ) Y7 )  ( <= ( + Y7 84 ) Y1 )  )
( or ( <= ( + X1 24 ) X8 )  ( <= ( + X8 62 ) X1 )  ( <= ( + Y1 43 ) Y8 )  ( <= ( + Y8 24 ) Y1 )  )
( or ( <= ( + X1 24 ) X9 )  ( <= ( + X9 63 ) X1 )  ( <= ( + Y1 43 ) Y9 )  ( <= ( + Y9 4 ) Y1 )  )
( or ( <= ( + X1 24 ) X10 )  ( <= ( + X10 69 ) X1 )  ( <= ( + Y1 43 ) Y10 )  ( <= ( + Y10 48 ) Y1 )  )
( or ( <= ( + X1 24 ) X11 )  ( <= ( + X11 84 ) X1 )  ( <= ( + Y1 43 ) Y11 )  ( <= ( + Y11 38 ) Y1 )  )
( or ( <= ( + X2 40 ) X3 )  ( <= ( + X3 48 ) X2 )  ( <= ( + Y2 70 ) Y3 )  ( <= ( + Y3 60 ) Y2 )  )
( or ( <= ( + X2 40 ) X4 )  ( <= ( + X4 7 ) X2 )  ( <= ( + Y2 70 ) Y4 )  ( <= ( + Y4 41 ) Y2 )  )
( or ( <= ( + X2 40 ) X5 )  ( <= ( + X5 86 ) X2 )  ( <= ( + Y2 70 ) Y5 )  ( <= ( + Y5 37 ) Y2 )  )
( or ( <= ( + X2 40 ) X6 )  ( <= ( + X6 94 ) X2 )  ( <= ( + Y2 70 ) Y6 )  ( <= ( + Y6 84 ) Y2 )  )
( or ( <= ( + X2 40 ) X7 )  ( <= ( + X7 1 ) X2 )  ( <= ( + Y2 70 ) Y7 )  ( <= ( + Y7 84 ) Y2 )  )
( or ( <= ( + X2 40 ) X8 )  ( <= ( + X8 62 ) X2 )  ( <= ( + Y2 70 ) Y8 )  ( <= ( + Y8 24 ) Y2 )  )
( or ( <= ( + X2 40 ) X9 )  ( <= ( + X9 63 ) X2 )  ( <= ( + Y2 70 ) Y9 )  ( <= ( + Y9 4 ) Y2 )  )
( or ( <= ( + X2 40 ) X10 )  ( <= ( + X10 69 ) X2 )  ( <= ( + Y2 70 ) Y10 )  ( <= ( + Y10 48 ) Y2 )  )
( or ( <= ( + X2 40 ) X11 )  ( <= ( + X11 84 ) X2 )  ( <= ( + Y2 70 ) Y11 )  ( <= ( + Y11 38 ) Y2 )  )
( or ( <= ( + X3 48 ) X4 )  ( <= ( + X4 7 ) X3 )  ( <= ( + Y3 60 ) Y4 )  ( <= ( + Y4 41 ) Y3 )  )
( or ( <= ( + X3 48 ) X5 )  ( <= ( + X5 86 ) X3 )  ( <= ( + Y3 60 ) Y5 )  ( <= ( + Y5 37 ) Y3 )  )
( or ( <= ( + X3 48 ) X6 )  ( <= ( + X6 94 ) X3 )  ( <= ( + Y3 60 ) Y6 )  ( <= ( + Y6 84 ) Y3 )  )
( or ( <= ( + X3 48 ) X7 )  ( <= ( + X7 1 ) X3 )  ( <= ( + Y3 60 ) Y7 )  ( <= ( + Y7 84 ) Y3 )  )
( or ( <= ( + X3 48 ) X8 )  ( <= ( + X8 62 ) X3 )  ( <= ( + Y3 60 ) Y8 )  ( <= ( + Y8 24 ) Y3 )  )
( or ( <= ( + X3 48 ) X9 )  ( <= ( + X9 63 ) X3 )  ( <= ( + Y3 60 ) Y9 )  ( <= ( + Y9 4 ) Y3 )  )
( or ( <= ( + X3 48 ) X10 )  ( <= ( + X10 69 ) X3 )  ( <= ( + Y3 60 ) Y10 )  ( <= ( + Y10 48 ) Y3 )  )
( or ( <= ( + X3 48 ) X11 )  ( <= ( + X11 84 ) X3 )  ( <= ( + Y3 60 ) Y11 )  ( <= ( + Y11 38 ) Y3 )  )
( or ( <= ( + X4 7 ) X5 )  ( <= ( + X5 86 ) X4 )  ( <= ( + Y4 41 ) Y5 )  ( <= ( + Y5 37 ) Y4 )  )
( or ( <= ( + X4 7 ) X6 )  ( <= ( + X6 94 ) X4 )  ( <= ( + Y4 41 ) Y6 )  ( <= ( + Y6 84 ) Y4 )  )
( or ( <= ( + X4 7 ) X7 )  ( <= ( + X7 1 ) X4 )  ( <= ( + Y4 41 ) Y7 )  ( <= ( + Y7 84 ) Y4 )  )
( or ( <= ( + X4 7 ) X8 )  ( <= ( + X8 62 ) X4 )  ( <= ( + Y4 41 ) Y8 )  ( <= ( + Y8 24 ) Y4 )  )
( or ( <= ( + X4 7 ) X9 )  ( <= ( + X9 63 ) X4 )  ( <= ( + Y4 41 ) Y9 )  ( <= ( + Y9 4 ) Y4 )  )
( or ( <= ( + X4 7 ) X10 )  ( <= ( + X10 69 ) X4 )  ( <= ( + Y4 41 ) Y10 )  ( <= ( + Y10 48 ) Y4 )  )
( or ( <= ( + X4 7 ) X11 )  ( <= ( + X11 84 ) X4 )  ( <= ( + Y4 41 ) Y11 )  ( <= ( + Y11 38 ) Y4 )  )
( or ( <= ( + X5 86 ) X6 )  ( <= ( + X6 94 ) X5 )  ( <= ( + Y5 37 ) Y6 )  ( <= ( + Y6 84 ) Y5 )  )
( or ( <= ( + X5 86 ) X7 )  ( <= ( + X7 1 ) X5 )  ( <= ( + Y5 37 ) Y7 )  ( <= ( + Y7 84 ) Y5 )  )
( or ( <= ( + X5 86 ) X8 )  ( <= ( + X8 62 ) X5 )  ( <= ( + Y5 37 ) Y8 )  ( <= ( + Y8 24 ) Y5 )  )
( or ( <= ( + X5 86 ) X9 )  ( <= ( + X9 63 ) X5 )  ( <= ( + Y5 37 ) Y9 )  ( <= ( + Y9 4 ) Y5 )  )
( or ( <= ( + X5 86 ) X10 )  ( <= ( + X10 69 ) X5 )  ( <= ( + Y5 37 ) Y10 )  ( <= ( + Y10 48 ) Y5 )  )
( or ( <= ( + X5 86 ) X11 )  ( <= ( + X11 84 ) X5 )  ( <= ( + Y5 37 ) Y11 )  ( <= ( + Y11 38 ) Y5 )  )
( or ( <= ( + X6 94 ) X7 )  ( <= ( + X7 1 ) X6 )  ( <= ( + Y6 84 ) Y7 )  ( <= ( + Y7 84 ) Y6 )  )
( or ( <= ( + X6 94 ) X8 )  ( <= ( + X8 62 ) X6 )  ( <= ( + Y6 84 ) Y8 )  ( <= ( + Y8 24 ) Y6 )  )
( or ( <= ( + X6 94 ) X9 )  ( <= ( + X9 63 ) X6 )  ( <= ( + Y6 84 ) Y9 )  ( <= ( + Y9 4 ) Y6 )  )
( or ( <= ( + X6 94 ) X10 )  ( <= ( + X10 69 ) X6 )  ( <= ( + Y6 84 ) Y10 )  ( <= ( + Y10 48 ) Y6 )  )
( or ( <= ( + X6 94 ) X11 )  ( <= ( + X11 84 ) X6 )  ( <= ( + Y6 84 ) Y11 )  ( <= ( + Y11 38 ) Y6 )  )
( or ( <= ( + X7 1 ) X8 )  ( <= ( + X8 62 ) X7 )  ( <= ( + Y7 84 ) Y8 )  ( <= ( + Y8 24 ) Y7 )  )
( or ( <= ( + X7 1 ) X9 )  ( <= ( + X9 63 ) X7 )  ( <= ( + Y7 84 ) Y9 )  ( <= ( + Y9 4 ) Y7 )  )
( or ( <= ( + X7 1 ) X10 )  ( <= ( + X10 69 ) X7 )  ( <= ( + Y7 84 ) Y10 )  ( <= ( + Y10 48 ) Y7 )  )
( or ( <= ( + X7 1 ) X11 )  ( <= ( + X11 84 ) X7 )  ( <= ( + Y7 84 ) Y11 )  ( <= ( + Y11 38 ) Y7 )  )
( or ( <= ( + X8 62 ) X9 )  ( <= ( + X9 63 ) X8 )  ( <= ( + Y8 24 ) Y9 )  ( <= ( + Y9 4 ) Y8 )  )
( or ( <= ( + X8 62 ) X10 )  ( <= ( + X10 69 ) X8 )  ( <= ( + Y8 24 ) Y10 )  ( <= ( + Y10 48 ) Y8 )  )
( or ( <= ( + X8 62 ) X11 )  ( <= ( + X11 84 ) X8 )  ( <= ( + Y8 24 ) Y11 )  ( <= ( + Y11 38 ) Y8 )  )
( or ( <= ( + X9 63 ) X10 )  ( <= ( + X10 69 ) X9 )  ( <= ( + Y9 4 ) Y10 )  ( <= ( + Y10 48 ) Y9 )  )
( or ( <= ( + X9 63 ) X11 )  ( <= ( + X11 84 ) X9 )  ( <= ( + Y9 4 ) Y11 )  ( <= ( + Y11 38 ) Y9 )  )
( or ( <= ( + X10 69 ) X11 )  ( <= ( + X11 84 ) X10 )  ( <= ( + Y10 48 ) Y11 )  ( <= ( + Y11 38 ) Y10 )  )
( >= X0 0)
( <= ( + X0 17) Z)
( >= Y0 0)
( <= ( + Y0 4 ) 173)
( >= X1 0)
( <= ( + X1 24) Z)
( >= Y1 0)
( <= ( + Y1 43 ) 173)
( >= X2 0)
( <= ( + X2 40) Z)
( >= Y2 0)
( <= ( + Y2 70 ) 173)
( >= X3 0)
( <= ( + X3 48) Z)
( >= Y3 0)
( <= ( + Y3 60 ) 173)
( >= X4 0)
( <= ( + X4 7) Z)
( >= Y4 0)
( <= ( + Y4 41 ) 173)
( >= X5 0)
( <= ( + X5 86) Z)
( >= Y5 0)
( <= ( + Y5 37 ) 173)
( >= X6 0)
( <= ( + X6 94) Z)
( >= Y6 0)
( <= ( + Y6 84 ) 173)
( >= X7 0)
( <= ( + X7 1) Z)
( >= Y7 0)
( <= ( + Y7 84 ) 173)
( >= X8 0)
( <= ( + X8 62) Z)
( >= Y8 0)
( <= ( + Y8 24 ) 173)
( >= X9 0)
( <= ( + X9 63) Z)
( >= Y9 0)
( <= ( + Y9 4 ) 173)
( >= X10 0)
( <= ( + X10 69) Z)
( >= Y10 0)
( <= ( + Y10 48 ) 173)
( >= X11 0)
( <= ( + X11 84) Z)
( >= Y11 0)
( <= ( + Y11 38 ) 173)
) )
)(=> $phi $goal))))